(set-logic QF_S)
(set-option :parse-transducers true)
(set-option :produce-models true)
(define-fun-rec toLower ((x String) (y String)) Bool
   (or (and (= x "") (= y ""))
       (and (not (= x "")) (not (= y ""))
           (= (char.code (str.head y))
               (ite (and (<= 65 (char.code (str.head x)))
                       (<= (char.code (str.head x)) 90))
                   (+ (char.code (str.head x)) 32)
                   (char.code (str.head x))))
           (toLower (str.tail x) (str.tail y))))
)
(declare-fun sym205 () String)
(declare-fun sym328 () String)
(declare-fun sym725 () String)
(declare-fun sym769 () String)
(declare-fun sym605 () String)
(declare-fun sym409 () String)
(declare-fun sym681 () String)
(declare-fun sym363 () String)
(declare-fun sym485 () String)
(declare-fun sym289 () String)
(declare-fun sym445 () String)
(declare-fun sym160 () String)
(declare-fun sym338 () String)
(declare-fun sym735 () String)
(declare-fun sym615 () String)
(declare-fun sym419 () String)
(declare-fun sym373 () String)
(declare-fun sym571 () String)
(declare-fun sym175 () String)
(declare-fun sym254 () String)
(declare-fun sym695 () String)
(declare-fun sym651 () String)
(declare-fun sym299 () String)
(declare-fun sym135 () String)
(declare-fun sym499 () String)
(declare-fun sym455 () String)
(declare-fun sym533 () String)
(declare-fun sym215 () String)
(declare-fun sym20 () String)
(declare-fun sym547 () String)
(declare-fun sym625 () String)
(declare-fun sym429 () String)
(declare-fun sym749 () String)
(declare-fun sym705 () String)
(declare-fun sym509 () String)
(declare-fun sym264 () String)
(declare-fun sym661 () String)
(declare-fun sym465 () String)
(declare-fun sym389 () String)
(declare-fun sym225 () String)
(declare-fun sym581 () String)
(declare-fun sym185 () String)
(declare-fun sym557 () String)
(declare-fun sym635 () String)
(declare-fun sym239 () String)
(declare-fun sym759 () String)
(declare-fun sym715 () String)
(declare-fun sym519 () String)
(declare-fun sym671 () String)
(declare-fun sym353 () String)
(declare-fun sym475 () String)
(declare-fun sym399 () String)
(declare-fun sym113 () String)
(declare-fun sym279 () String)
(declare-fun sym313 () String)
(declare-fun sym150 () String)
(declare-fun sym195 () String)
(declare-fun sym591 () String)
(declare-fun L106  () String)
(declare-fun L63  () String)
(declare-fun L99  () String)
(declare-fun L3  () String)
(declare-fun L110  () String)
(declare-fun L114  () String)
(declare-fun L38  () String)
(declare-fun L18  () String)
(declare-fun L34  () String)
(declare-fun L78  () String)
(declare-fun L46  () String)
(declare-fun L14  () String)
(declare-fun L58  () String)
(declare-fun L26  () String)
(declare-fun L30  () String)
(declare-fun L74  () String)
(declare-fun L8  () String)
(declare-fun L42  () String)
(declare-fun L86  () String)
(declare-fun L10  () String)
(declare-fun L54  () String)
(declare-fun L22  () String)
(declare-fun L66  () String)
(declare-fun L70  () String)
(declare-fun L4  () String)
(declare-fun L82  () String)
(declare-fun L50  () String)
(declare-fun L94  () String)
(declare-fun L62  () String)
(declare-fun L0  () String)
(declare-fun L90  () String)
(declare-fun L29  () String)
(declare-fun L13  () String)
(declare-fun L9  () String)
(declare-fun L104  () String)
(declare-fun L97  () String)
(declare-fun L5  () String)
(declare-fun L108  () String)
(declare-fun L1  () String)
(declare-fun L61  () String)
(declare-fun L112  () String)
(declare-fun L16  () String)
(declare-fun L28  () String)
(declare-fun L12  () String)
(declare-fun L56  () String)
(declare-fun L24  () String)
(declare-fun L68  () String)
(declare-fun L36  () String)
(declare-fun L48  () String)
(declare-fun L52  () String)
(declare-fun L96  () String)
(declare-fun L20  () String)
(declare-fun L64  () String)
(declare-fun L32  () String)
(declare-fun L76  () String)
(declare-fun L6  () String)
(declare-fun L44  () String)
(declare-fun L88  () String)
(declare-fun L92  () String)
(declare-fun L60  () String)
(declare-fun L72  () String)
(declare-fun L2  () String)
(declare-fun L40  () String)
(declare-fun L84  () String)
(declare-fun L80  () String)
(declare-fun L101  () String)
(define-fun Alphabet () RegLan 
	(re.* (re.union (str.to_re "A") (str.to_re "B") (str.to_re "C") (str.to_re "D") (str.to_re "E") (str.to_re "F") (str.to_re "G") (str.to_re "H") (str.to_re "I") (str.to_re "J") (str.to_re "K") (str.to_re "L") (str.to_re "M") (str.to_re "N") (str.to_re "O") (str.to_re "P") (str.to_re "Q") (str.to_re "R") (str.to_re "S") (str.to_re "T") (str.to_re "U") (str.to_re "V") (str.to_re "W") (str.to_re "X") (str.to_re "Y") (str.to_re "Z") (str.to_re "a") (str.to_re "b") (str.to_re "c") (str.to_re "d") (str.to_re "e") (str.to_re "f") (str.to_re "g") (str.to_re "h") (str.to_re "i") (str.to_re "j") (str.to_re "k") (str.to_re "l") (str.to_re "m") (str.to_re "n") (str.to_re "o") (str.to_re "p") (str.to_re "q") (str.to_re "r") (str.to_re "s") (str.to_re "t") (str.to_re "u") (str.to_re "v") (str.to_re "w") (str.to_re "x") (str.to_re "y") (str.to_re "z") ))
)
(assert (toLower sym419  L101 ))
(assert (toLower sym239  L80 ))
(assert (toLower sym615  L84 ))
(assert (toLower sym399  L40 ))
(assert (toLower sym509  L2 ))
(assert (toLower sym429  L72 ))
(assert (toLower sym113  L60 ))
(assert (toLower sym715  L92 ))
(assert (toLower sym225  L88 ))
(assert (toLower sym591  L44 ))
(assert (toLower sym363  L6 ))
(assert (toLower sym254  L76 ))
(assert (toLower sym725  L32 ))
(assert (toLower sym651  L64 ))
(assert (toLower sym465  L20 ))
(assert (toLower sym20  L96 ))
(assert (toLower sym289  L52 ))
(assert (toLower sym759  L48 ))
(assert (toLower sym571  L36 ))
(assert (toLower sym769  L68 ))
(assert (toLower sym135  L24 ))
(assert (toLower sym205  L56 ))
(assert (toLower sym195  L12 ))
(assert (toLower sym485  L28 ))
(assert (toLower sym581  L16 ))
(assert (toLower sym353  L112 ))
(assert (toLower "database"  L61 ))
(assert (toLower "length"  L1 ))
(assert (toLower sym455  L108 ))
(assert (toLower "type"  L5 ))
(assert (toLower sym557  L97 ))
(assert (toLower sym661  L104 ))
(assert (toLower "name"  L9 ))
(assert (toLower "table"  L13 ))
(assert (toLower "option"  L29 ))
(assert (toLower sym735  L90 ))
(assert (toLower sym681  L0 ))
(assert (toLower sym519  L62 ))
(assert (toLower sym215  L94 ))
(assert (toLower sym695  L50 ))
(assert (toLower sym299  L82 ))
(assert (toLower sym373  L4 ))
(assert (toLower sym499  L70 ))
(assert (toLower sym705  L66 ))
(assert (toLower sym671  L22 ))
(assert (toLower sym749  L54 ))
(assert (toLower sym475  L10 ))
(assert (toLower sym150  L86 ))
(assert (toLower sym264  L42 ))
(assert (toLower sym533  L8 ))
(assert (toLower sym635  L74 ))
(assert (toLower sym279  L30 ))
(assert (toLower sym185  L26 ))
(assert (toLower sym389  L58 ))
(assert (toLower sym445  L14 ))
(assert (toLower sym160  L46 ))
(assert (toLower sym338  L78 ))
(assert (toLower sym547  L34 ))
(assert (toLower sym328  L18 ))
(assert (toLower sym625  L38 ))
(assert (toLower sym605  L114 ))
(assert (toLower sym313  L110 ))
(assert (toLower "description"  L3 ))
(assert (toLower sym409  L99 ))
(assert (toLower "field"  L63 ))
(assert (toLower sym175  L106 ))

(assert (str.in_re sym591 Alphabet))
(assert (str.in_re sym195 Alphabet))
(assert (str.in_re sym150 Alphabet))
(assert (str.in_re sym313 Alphabet))
(assert (str.in_re sym279 Alphabet))
(assert (str.in_re sym113 Alphabet))
(assert (str.in_re sym399 Alphabet))
(assert (str.in_re sym475 Alphabet))
(assert (str.in_re sym353 Alphabet))
(assert (str.in_re sym671 Alphabet))
(assert (str.in_re sym519 Alphabet))
(assert (str.in_re sym715 Alphabet))
(assert (str.in_re sym759 Alphabet))
(assert (str.in_re sym239 Alphabet))
(assert (str.in_re sym635 Alphabet))
(assert (str.in_re sym557 Alphabet))
(assert (str.in_re sym185 Alphabet))
(assert (str.in_re sym581 Alphabet))
(assert (str.in_re sym225 Alphabet))
(assert (str.in_re sym389 Alphabet))
(assert (str.in_re sym465 Alphabet))
(assert (str.in_re sym661 Alphabet))
(assert (str.in_re sym264 Alphabet))
(assert (str.in_re sym509 Alphabet))
(assert (str.in_re sym705 Alphabet))
(assert (str.in_re sym749 Alphabet))
(assert (str.in_re sym429 Alphabet))
(assert (str.in_re sym625 Alphabet))
(assert (str.in_re sym547 Alphabet))
(assert (str.in_re sym20 Alphabet))
(assert (str.in_re sym215 Alphabet))
(assert (str.in_re sym533 Alphabet))
(assert (str.in_re sym455 Alphabet))
(assert (str.in_re sym499 Alphabet))
(assert (str.in_re sym135 Alphabet))
(assert (str.in_re sym299 Alphabet))
(assert (str.in_re sym651 Alphabet))
(assert (str.in_re sym695 Alphabet))
(assert (str.in_re sym254 Alphabet))
(assert (str.in_re sym175 Alphabet))
(assert (str.in_re sym571 Alphabet))
(assert (str.in_re sym373 Alphabet))
(assert (str.in_re sym419 Alphabet))
(assert (str.in_re sym615 Alphabet))
(assert (str.in_re sym735 Alphabet))
(assert (str.in_re sym338 Alphabet))
(assert (str.in_re sym160 Alphabet))
(assert (str.in_re sym445 Alphabet))
(assert (str.in_re sym289 Alphabet))
(assert (str.in_re sym485 Alphabet))
(assert (str.in_re sym363 Alphabet))
(assert (str.in_re sym681 Alphabet))
(assert (str.in_re sym409 Alphabet))
(assert (str.in_re sym605 Alphabet))
(assert (str.in_re sym769 Alphabet))
(assert (str.in_re sym725 Alphabet))
(assert (str.in_re sym328 Alphabet))
(assert (str.in_re sym205 Alphabet))
(assert (= L0 L1 ))
(assert (not (= L2 L3 )))
(assert (= L4 L5 ))
(assert (not (= L6 L3 )))
(assert (= L8 L9 ))
(assert (not (= L10 L1 )))
(assert (not (= L12 L13 )))
(assert (not (= L14 L9 )))
(assert (not (= L16 L3 )))
(assert (not (= L18 L9 )))
(assert (not (= L20 L5 )))
(assert (not (= L22 L5 )))
(assert (= L24 L9 ))
(assert (not (= L26 L3 )))
(assert (= L28 L29 ))
(assert (not (= L30 L9 )))
(assert (not (= L32 L1 )))
(assert (not (= L34 L9 )))
(assert (not (= L36 L9 )))
(assert (not (= L38 L5 )))
(assert (not (= L40 L3 )))
(assert (= L42 L3 ))
(assert (= L44 L5 ))
(assert (= L46 L3 ))
(assert (not (= L48 L3 )))
(assert (not (= L50 L9 )))
(assert (not (= L52 L3 )))
(assert (not (= L54 L9 )))
(assert (not (= L56 L9 )))
(assert (not (= L58 L9 )))
(assert (= L60 L61 ))
(assert (= L62 L63 ))
(assert (not (= L64 L9 )))
(assert (not (= L66 L3 )))
(assert (not (= L68 L63 )))
(assert (not (= L70 L9 )))
(assert (= L72 L29 ))
(assert (= L74 L1 ))
(assert (not (= L76 L9 )))
(assert (= L78 L3 ))
(assert (= L80 L9 ))
(assert (= L82 L63 ))
(assert (not (= L84 L3 )))
(assert (not (= L86 L9 )))
(assert (= L88 L13 ))
(assert (= L90 L29 ))
(assert (not (= L92 L5 )))
(assert (not (= L94 L3 )))
(assert (not (= L96 "sql" )))
(assert (= L97 L3 ))
(assert (not (= L99 L5 )))
(assert (not (= L101 L1 )))
(assert (= L96 "html" ))
(assert (not (= L104 L3 )))
(assert (not (= L106 L9 )))
(assert (not (= L108 L3 )))
(assert (= L110 L9 ))
(assert (not (= L112 L9 )))
(assert (not (= L114 L9 )))
(check-sat)
(get-model)
(exit)
